language Essence 1.3
letting nnodes be 50
letting nrings be 37
letting capacity be 37
letting demand be 
{{1, 4},
{1, 14},
{1, 16},
{1, 17},
{1, 18},
{1, 19},
{1, 20},
{1, 23},
{1, 24},
{1, 26},
{1, 30},
{1, 31},
{1, 32},
{1, 33},
{1, 34},
{1, 36},
{1, 38},
{1, 41},
{1, 42},
{1, 43},
{1, 44},
{1, 45},
{1, 46},
{1, 48},
{1, 50},
{2, 4},
{2, 5},
{2, 9},
{2, 10},
{2, 13},
{2, 14},
{2, 18},
{2, 19},
{2, 21},
{2, 23},
{2, 26},
{2, 29},
{2, 30},
{2, 32},
{2, 33},
{2, 36},
{2, 38},
{2, 41},
{2, 42},
{2, 44},
{2, 47},
{2, 48},
{2, 50},
{3, 6},
{3, 8},
{3, 9},
{3, 10},
{3, 12},
{3, 13},
{3, 14},
{3, 15},
{3, 18},
{3, 20},
{3, 23},
{3, 24},
{3, 26},
{3, 28},
{3, 30},
{3, 31},
{3, 34},
{3, 38},
{3, 39},
{3, 40},
{3, 41},
{3, 43},
{3, 45},
{3, 47},
{3, 49},
{3, 50},
{4, 6},
{4, 7},
{4, 9},
{4, 10},
{4, 11},
{4, 12},
{4, 17},
{4, 20},
{4, 23},
{4, 26},
{4, 28},
{4, 29},
{4, 31},
{4, 33},
{4, 35},
{4, 36},
{4, 37},
{4, 38},
{4, 41},
{4, 45},
{4, 47},
{4, 50},
{5, 6},
{5, 7},
{5, 8},
{5, 9},
{5, 10},
{5, 11},
{5, 14},
{5, 15},
{5, 16},
{5, 17},
{5, 18},
{5, 19},
{5, 23},
{5, 26},
{5, 29},
{5, 33},
{5, 34},
{5, 38},
{5, 41},
{5, 42},
{5, 45},
{5, 49},
{5, 50},
{6, 8},
{6, 13},
{6, 14},
{6, 15},
{6, 16},
{6, 19},
{6, 21},
{6, 22},
{6, 27},
{6, 28},
{6, 30},
{6, 31},
{6, 32},
{6, 36},
{6, 37},
{6, 38},
{6, 39},
{6, 41},
{6, 42},
{6, 43},
{6, 44},
{6, 45},
{6, 46},
{6, 47},
{6, 48},
{6, 49},
{7, 8},
{7, 10},
{7, 13},
{7, 14},
{7, 20},
{7, 21},
{7, 22},
{7, 25},
{7, 26},
{7, 28},
{7, 29},
{7, 31},
{7, 32},
{7, 36},
{7, 43},
{7, 46},
{7, 48},
{8, 11},
{8, 12},
{8, 13},
{8, 15},
{8, 17},
{8, 18},
{8, 19},
{8, 20},
{8, 22},
{8, 25},
{8, 29},
{8, 30},
{8, 32},
{8, 35},
{8, 37},
{8, 38},
{8, 39},
{8, 40},
{8, 43},
{8, 45},
{8, 48},
{8, 50},
{9, 10},
{9, 12},
{9, 14},
{9, 16},
{9, 17},
{9, 18},
{9, 19},
{9, 20},
{9, 21},
{9, 24},
{9, 27},
{9, 29},
{9, 30},
{9, 31},
{9, 36},
{9, 42},
{9, 47},
{9, 49},
{9, 50},
{10, 13},
{10, 14},
{10, 20},
{10, 21},
{10, 22},
{10, 27},
{10, 28},
{10, 33},
{10, 34},
{10, 35},
{10, 36},
{10, 37},
{10, 39},
{10, 40},
{10, 41},
{10, 42},
{10, 45},
{10, 47},
{10, 49},
{11, 14},
{11, 16},
{11, 18},
{11, 19},
{11, 20},
{11, 21},
{11, 22},
{11, 23},
{11, 25},
{11, 29},
{11, 30},
{11, 33},
{11, 37},
{11, 39},
{11, 40},
{11, 43},
{11, 47},
{12, 14},
{12, 16},
{12, 18},
{12, 19},
{12, 20},
{12, 21},
{12, 24},
{12, 25},
{12, 28},
{12, 29},
{12, 31},
{12, 33},
{12, 36},
{12, 39},
{12, 40},
{12, 42},
{12, 44},
{12, 46},
{12, 49},
{12, 50},
{13, 15},
{13, 17},
{13, 18},
{13, 20},
{13, 21},
{13, 23},
{13, 24},
{13, 25},
{13, 26},
{13, 27},
{13, 28},
{13, 29},
{13, 32},
{13, 37},
{13, 38},
{13, 39},
{13, 40},
{13, 42},
{13, 46},
{13, 47},
{13, 50},
{14, 16},
{14, 17},
{14, 22},
{14, 23},
{14, 26},
{14, 29},
{14, 31},
{14, 34},
{14, 38},
{14, 42},
{14, 43},
{14, 46},
{14, 48},
{15, 16},
{15, 18},
{15, 20},
{15, 24},
{15, 26},
{15, 27},
{15, 28},
{15, 29},
{15, 30},
{15, 31},
{15, 32},
{15, 33},
{15, 36},
{15, 41},
{15, 45},
{15, 48},
{15, 50},
{16, 19},
{16, 20},
{16, 24},
{16, 26},
{16, 27},
{16, 28},
{16, 29},
{16, 30},
{16, 31},
{16, 32},
{16, 33},
{16, 34},
{16, 35},
{16, 36},
{16, 37},
{16, 38},
{16, 41},
{16, 43},
{16, 45},
{16, 46},
{16, 47},
{16, 49},
{16, 50},
{17, 19},
{17, 22},
{17, 23},
{17, 25},
{17, 26},
{17, 27},
{17, 30},
{17, 34},
{17, 35},
{17, 36},
{17, 37},
{17, 41},
{17, 44},
{17, 46},
{17, 47},
{17, 49},
{17, 50},
{18, 19},
{18, 20},
{18, 22},
{18, 23},
{18, 24},
{18, 25},
{18, 26},
{18, 27},
{18, 29},
{18, 31},
{18, 34},
{18, 38},
{18, 41},
{18, 43},
{18, 45},
{18, 47},
{18, 48},
{18, 49},
{19, 21},
{19, 24},
{19, 25},
{19, 28},
{19, 29},
{19, 32},
{19, 33},
{19, 36},
{19, 38},
{19, 42},
{19, 47},
{19, 48},
{20, 21},
{20, 22},
{20, 23},
{20, 25},
{20, 26},
{20, 29},
{20, 31},
{20, 34},
{20, 35},
{20, 36},
{20, 37},
{20, 38},
{20, 42},
{20, 43},
{20, 50},
{21, 23},
{21, 25},
{21, 27},
{21, 30},
{21, 31},
{21, 33},
{21, 34},
{21, 36},
{21, 40},
{21, 42},
{21, 43},
{21, 46},
{21, 49},
{21, 50},
{22, 23},
{22, 24},
{22, 26},
{22, 28},
{22, 30},
{22, 31},
{22, 33},
{22, 36},
{22, 40},
{22, 45},
{22, 48},
{22, 49},
{22, 50},
{23, 25},
{23, 26},
{23, 27},
{23, 28},
{23, 29},
{23, 30},
{23, 33},
{23, 35},
{23, 36},
{23, 37},
{23, 38},
{23, 39},
{23, 42},
{23, 43},
{23, 44},
{23, 45},
{23, 46},
{23, 50},
{24, 25},
{24, 27},
{24, 28},
{24, 29},
{24, 31},
{24, 32},
{24, 34},
{24, 37},
{24, 38},
{24, 40},
{24, 41},
{24, 48},
{24, 49},
{24, 50},
{25, 29},
{25, 30},
{25, 31},
{25, 32},
{25, 34},
{25, 35},
{25, 38},
{25, 39},
{25, 44},
{25, 45},
{25, 46},
{25, 49},
{25, 50},
{26, 29},
{26, 32},
{26, 33},
{26, 34},
{26, 35},
{26, 38},
{26, 39},
{26, 41},
{26, 42},
{26, 43},
{26, 45},
{26, 49},
{27, 32},
{27, 33},
{27, 34},
{27, 36},
{27, 38},
{27, 40},
{27, 42},
{27, 48},
{27, 50},
{28, 29},
{28, 31},
{28, 33},
{28, 34},
{28, 35},
{28, 38},
{28, 39},
{28, 47},
{28, 50},
{29, 31},
{29, 32},
{29, 33},
{29, 37},
{29, 42},
{29, 48},
{30, 32},
{30, 33},
{30, 35},
{30, 36},
{30, 37},
{30, 39},
{30, 44},
{30, 46},
{30, 49},
{31, 35},
{31, 36},
{31, 39},
{31, 40},
{31, 41},
{31, 42},
{31, 43},
{31, 48},
{31, 50},
{32, 33},
{32, 34},
{32, 35},
{32, 38},
{32, 39},
{32, 40},
{32, 41},
{32, 43},
{32, 46},
{32, 47},
{32, 48},
{32, 49},
{32, 50},
{33, 34},
{33, 36},
{33, 37},
{33, 38},
{33, 42},
{33, 46},
{33, 47},
{33, 49},
{34, 36},
{34, 37},
{34, 39},
{34, 40},
{34, 44},
{34, 46},
{35, 36},
{35, 39},
{35, 43},
{35, 44},
{35, 45},
{35, 50},
{36, 37},
{36, 40},
{36, 41},
{36, 42},
{36, 43},
{36, 44},
{36, 45},
{36, 47},
{36, 50},
{37, 38},
{37, 40},
{37, 41},
{37, 42},
{37, 43},
{37, 44},
{37, 46},
{37, 47},
{37, 48},
{37, 50},
{38, 41},
{38, 43},
{38, 44},
{38, 45},
{38, 47},
{38, 49},
{39, 41},
{39, 42},
{39, 44},
{39, 45},
{39, 46},
{39, 47},
{39, 49},
{39, 50},
{40, 41},
{40, 44},
{40, 45},
{40, 48},
{40, 50},
{41, 44},
{41, 45},
{41, 47},
{41, 49},
{41, 50},
{42, 47},
{42, 49},
{43, 44},
{43, 45},
{44, 47},
{44, 49},
{44, 50},
{45, 50},
{46, 50},
{47, 50},
{48, 49},
{49, 50}}
